
1.0
       27.5750007629         0.0000000000         0.0000000000
        0.0000000000         3.9042000771         0.0000000000
       -0.4493948251         0.0000000000        10.2722742867
   Te   Zr   Cr
   28    8    2
Direct
     0.297969997         0.000000000         0.583230019
     0.702030003         0.000000000         0.416769981
     0.797969997         0.500000000         0.583230019
     0.202030003         0.500000000         0.416769981
     0.404220015         0.500000000         0.535470009
     0.595780015         0.500000000         0.464529991
     0.904219985         0.000000000         0.535470009
     0.095779985         0.000000000         0.464529991
     0.374529988         0.000000000         0.233500004
     0.625470042         0.000000000         0.766499996
     0.874529958         0.500000000         0.233500004
     0.125470012         0.500000000         0.766499996
     0.274450004         0.000000000         0.176829994
     0.725549996         0.000000000         0.823170006
     0.774450004         0.500000000         0.176829994
     0.225549996         0.500000000         0.823170006
     0.341360003         0.500000000         0.892549992
     0.658640027         0.500000000         0.107450008
     0.841359973         0.000000000         0.892549992
     0.158639997         0.000000000         0.107450008
     0.493499994         0.000000000         0.314119995
     0.506500006         0.000000000         0.685880005
     0.993499994         0.500000000         0.314119995
     0.006500006         0.500000000         0.685880005
     0.441199988         0.500000000         0.931469977
     0.558799982         0.500000000         0.068530023
     0.941200018         0.000000000         0.931469977
     0.058800012         0.000000000         0.068530023
     0.312370002         0.500000000         0.367320001
     0.687629998         0.500000000         0.632679999
     0.812370002         0.000000000         0.367320001
     0.187629998         0.000000000         0.632679999
     0.397210002         0.000000000         0.747340024
     0.602789998         0.000000000         0.252659976
     0.897210002         0.500000000         0.747340024
     0.102789998         0.500000000         0.252659976
     0.500000000         0.500000000         0.500000000
     0.000000000         0.000000000         0.500000000
