Minimal honeycomb two-site Ni lattice
1.0
1.7320508076 0.0000000000 0.0000000000
0.8660254038 1.5000000000 0.0000000000
0.0000000000 0.0000000000 20.0000000000
Ni
2
Direct
0.0000000000 0.0000000000 0.5000000000
0.3333333333 0.3333333333 0.5000000000
