Simple cubic single-spin test
1.0
1.0 0.0 0.0
0.0 1.0 0.0
0.0 0.0 1.0
Ni
1
Direct
0.0 0.0 0.0
